NAME : KROA99B.26552.tour
COMMENT : Cost = 0_26552
COMMENT : Found by LKH [Keld Helsgaun] Sun Sep 17 16:52:41 2017
TYPE : TOUR
DIMENSION : 99
TOUR_SECTION
1
62
48
19
52
87
22
93
78
18
24
37
98
35
73
21
46
28
57
60
50
86
76
20
56
9
7
45
14
70
40
99
47
51
77
38
84
67
49
43
72
80
25
68
63
39
53
2
94
81
13
75
33
36
5
95
30
29
3
42
82
54
12
27
85
34
61
59
23
97
90
44
32
11
15
17
58
71
83
10
89
6
91
74
4
64
26
65
69
16
96
55
79
31
88
41
8
66
92
-1
EOF
